c A SAT instance generated from a 3-CNF formula that had 27 clauses and 9 variables
p cnf 9 27
-2 -1 5 0
7 -8 -1 0
8 4 5 0
-1 -3 -9 0
-6 -7 -2 0
-3 -7 -4 0
1 -5 -7 0
5 -8 -2 0
3 -6 -7 0
5 4 -3 0
-2 1 -3 0
5 8 3 0
-1 6 -7 0
6 -4 -1 0
-7 5 -6 0
-4 -1 8 0
9 -6 -3 0
-4 -6 -3 0
-3 1 -9 0
3 -5 -9 0
-7 -8 -6 0
-3 -7 9 0
-1 -2 4 0
-7 1 -2 0
1 7 5 0
-6 8 3 0
-3 7 -1 0
